unsat
(forall ((A (_ BitVec 1))
         (B (_ BitVec 1))
         (C (_ BitVec 1))
         (D (_ BitVec 1))
         (E (_ BitVec 1))
         (F (_ BitVec 1))
         (G (_ BitVec 32))
         (H (_ BitVec 22))
         (I (_ BitVec 1))
         (J (_ BitVec 1))
         (K (_ BitVec 1))
         (L (_ BitVec 1))
         (M (_ BitVec 4))
         (N (_ BitVec 4))
         (O (_ BitVec 1))
         (P (_ BitVec 1))
         (Q (_ BitVec 1))
         (R (_ BitVec 1))
         (S (_ BitVec 1))
         (T (_ BitVec 1))
         (U (_ BitVec 2))
         (V (_ BitVec 2))
         (W (_ BitVec 1))
         (X (_ BitVec 1))
         (Y (_ BitVec 1))
         (Z (_ BitVec 1))
         (A1 (_ BitVec 22))
         (B1 (_ BitVec 32))
         (C1 (_ BitVec 1))
         (D1 (_ BitVec 1))
         (E1 (_ BitVec 1))
         (F1 (_ BitVec 5))
         (G1 (_ BitVec 22))
         (H1 (_ BitVec 32))
         (I1 (_ BitVec 1))
         (J1 (_ BitVec 1))
         (K1 (_ BitVec 1))
         (L1 (_ BitVec 1))
         (M1 (_ BitVec 36))
         (N1 (_ BitVec 1))
         (O1 (_ BitVec 3))
         (P1 (_ BitVec 1))
         (Q1 (_ BitVec 1))
         (R1 (_ BitVec 2))
         (S1 (_ BitVec 1))
         (T1 (_ BitVec 1))
         (U1 (_ BitVec 1))
         (V1 (_ BitVec 1))
         (W1 (_ BitVec 1))
         (X1 (_ BitVec 1))
         (Y1 (_ BitVec 32))
         (Z1 (_ BitVec 1))
         (A2 (_ BitVec 4))
         (B2 (_ BitVec 1))
         (C2 (_ BitVec 22))
         (D2 (_ BitVec 1)))
  (! (let ((a!1 (or ((_ bit2bool 4) F1)
                    (not ((_ bit2bool 6) G1))
                    (not (bvule ((_ extract 3 0) F1) #x9))))
           (a!2 (or (= S1 #b1) (not (= ((_ extract 0 0) G1) #b1))))
           (a!4 (or (not (= F1 #b00000))
                    (not (= ((_ extract 1 1) R1) #b1))
                    (not ((_ bit2bool 0) K1))))
           (a!5 (or (= L #b0)
                    (not (= I #b1))
                    (= D1 #b1)
                    (not (= ((_ extract 1 1) O1) #b1))))
           (a!6 (or (not (= ((_ extract 4 4) F1) #b0))
                    (not (= ((_ extract 2 2) F1) #b0))
                    (not (= ((_ extract 1 1) F1) #b0))
                    (not (= ((_ extract 0 0) F1) #b0))
                    (not (= ((_ extract 3 3) F1) #b0))))
           (a!8 (or ((_ bit2bool 4) F1)
                    (not ((_ bit2bool 2) G1))
                    (not (bvule ((_ extract 3 0) F1) #x9))))
           (a!9 (or ((_ bit2bool 4) F1)
                    (not ((_ bit2bool 3) G1))
                    (not (bvule ((_ extract 3 0) F1) #x9))))
           (a!10 (and (or (= P #b0) (= D1 #b1))
                      (or (not (= D1 #b0)) (not (= D1 #b1)))))
           (a!21 (and (= ((_ extract 2 2) F1) #b0)
                      (= ((_ extract 1 1) F1) #b0)
                      (= ((_ extract 0 0) F1) #b0)
                      (= ((_ extract 3 3) F1) #b0)
                      (= ((_ extract 4 4) F1) #b0)))
           (a!24 (or (and (= ((_ extract 7 7) G1) #b0)
                          (= ((_ extract 6 6) G1) #b0)
                          (= ((_ extract 5 5) G1) #b0)
                          (= ((_ extract 4 4) G1) #b0)
                          (= ((_ extract 3 3) G1) #b0)
                          (= ((_ extract 2 2) G1) #b0)
                          (= ((_ extract 1 1) G1) #b0)
                          (= ((_ extract 0 0) G1) #b0))
                     (= R1 #b10)))
           (a!25 (or (= R1 #b00)
                     (= J1 #b0)
                     (not (= U1 #b0))
                     (not (= ((_ extract 11 11) H1) #b1))))
           (a!26 (or ((_ bit2bool 4) F1)
                     (not ((_ bit2bool 4) G1))
                     (not (bvule ((_ extract 3 0) F1) #x9))))
           (a!52 (or ((_ bit2bool 0) C1)
                     (not ((_ bit2bool 34) M1))
                     (not (= ((_ extract 1 1) R1) #b1))
                     (= S1 #b0)))
           (a!53 (or (not (= S1 #b1))
                     (not (= ((_ extract 1 1) R1) #b1))
                     ((_ bit2bool 0) C1)
                     (not (= ((_ extract 27 0) M1) ((_ extract 31 4) M1)))))
           (a!54 (or ((_ bit2bool 4) F1)
                     (not ((_ bit2bool 5) G1))
                     (not (bvule ((_ extract 3 0) F1) #x9)))))
     (let ((a!3 (or (= R1 #b10)
                    ((_ bit2bool 0) O1)
                    (not (= P1 #b1))
                    (and (or (= Z #b0) (= J1 #b1)) a!2)))
           (a!7 (ite (or (= S1 #b0) (not a!6))
                     ((_ extract 3 0) F1)
                     (bvadd #xf ((_ extract 3 0) F1))))
           (a!11 (bvule (ite a!6
                             (bvadd #xf ((_ extract 3 0) F1))
                             ((_ extract 3 0) F1))
                        #x9))
           (a!12 (ite a!6
                      (= ((_ extract 3 3) (bvadd #b11111 F1)) #b0)
                      (= ((_ extract 3 3) F1) #b0)))
           (a!13 (ite a!6
                      (= ((_ extract 2 2) (bvadd #b11111 F1)) #b0)
                      (= ((_ extract 2 2) F1) #b0)))
           (a!14 (ite a!6
                      (= ((_ extract 4 4) (bvadd #b11111 F1)) #b0)
                      (= ((_ extract 4 4) F1) #b0)))
           (a!15 (ite a!6
                      (= ((_ extract 1 1) (bvadd #b11111 F1)) #b0)
                      (= ((_ extract 1 1) F1) #b0)))
           (a!16 (ite a!6
                      (= ((_ extract 0 0) F1) #b1)
                      (= ((_ extract 0 0) F1) #b0)))
           (a!18 (bvadd #xf
                        (ite a!6
                             (bvadd #xf ((_ extract 3 0) F1))
                             ((_ extract 3 0) F1))))
           (a!22 (ite a!21
                      (= ((_ extract 4 4) F1) #b0)
                      (= ((_ extract 4 4) (bvadd #b11111 F1)) #b0)))
           (a!23 (ite (or (not (= O1 #b001)) (not a!6))
                      ((_ extract 3 0) F1)
                      (bvadd #xf ((_ extract 3 0) F1))))
           (a!27 ((_ extract 4 4)
                   (bvadd #b11111 (ite a!6 (bvadd #b11111 F1) F1))))
           (a!28 ((_ extract 1 1)
                   (bvadd #b11111 (ite a!6 (bvadd #b11111 F1) F1))))
           (a!29 ((_ extract 2 2)
                   (bvadd #b11111 (ite a!6 (bvadd #b11111 F1) F1))))
           (a!30 (ite a!6
                      (= ((_ extract 0 0) F1) #b0)
                      (= ((_ extract 0 0) F1) #b1)))
           (a!31 ((_ extract 3 3)
                   (bvadd #b11111 (ite a!6 (bvadd #b11111 F1) F1))))
           (a!38 (ite (or (= S1 #b0) (not a!6))
                      (= ((_ extract 4 4) F1) #b0)
                      (= ((_ extract 4 4) (bvadd #b11111 F1)) #b0)))
           (a!39 (ite (or (= S1 #b0) (not a!6))
                      (= ((_ extract 1 1) F1) #b0)
                      (= ((_ extract 1 1) (bvadd #b11111 F1)) #b0)))
           (a!40 (ite (or (= S1 #b0) (not a!6))
                      (= ((_ extract 0 0) F1) #b0)
                      (= ((_ extract 0 0) F1) #b1)))
           (a!41 (ite (or (= S1 #b0) (not a!6))
                      (= ((_ extract 3 3) F1) #b0)
                      (= ((_ extract 3 3) (bvadd #b11111 F1)) #b0)))
           (a!42 (ite (or (= S1 #b0) (not a!6))
                      (= ((_ extract 2 2) F1) #b0)
                      (= ((_ extract 2 2) (bvadd #b11111 F1)) #b0)))
           (a!44 (ite (or (= S1 #b0) (not a!6))
                      (= ((_ extract 0 0) F1) #b1)
                      (= ((_ extract 0 0) F1) #b0)))
           (a!45 (ite (or (= S1 #b0) (not a!6)) F1 (bvadd #b11111 F1)))
           (a!50 (ite (or (= S1 #b0) a!21)
                      (= ((_ extract 4 4) F1) #b0)
                      (= ((_ extract 4 4) (bvadd #b11111 F1)) #b0))))
     (let ((a!17 (or (not a!12) (not a!13) (not a!14) (not a!15) (not a!16)))
           (a!37 (ite (or (not a!12) (not a!13) (not a!15) (not a!16))
                      a!18
                      (ite a!6
                           (bvadd #xf ((_ extract 3 0) F1))
                           ((_ extract 3 0) F1))))
           (a!43 (or (not a!38) (not a!39) (not a!40) (not a!41) (not a!42))))
     (let ((a!19 (ite (or (not (= O1 #b001)) (not a!17))
                      (ite a!6
                           (bvadd #xf ((_ extract 3 0) F1))
                           ((_ extract 3 0) F1))
                      a!18))
           (a!32 (or (not (ite a!17 (= a!28 #b0) a!15))
                     (not (ite a!17 (= a!29 #b0) a!13))
                     (not (ite a!17 a!30 a!16))
                     (not (ite a!17 (= a!31 #b0) a!12))
                     (not (ite a!17 (= a!27 #b0) a!14))))
           (a!33 (ite a!17
                      a!18
                      (ite a!6
                           (bvadd #xf ((_ extract 3 0) F1))
                           ((_ extract 3 0) F1))))
           (a!35 (or (not (ite a!17 (= a!28 #b0) a!15))
                     (not (ite a!17 (= a!29 #b0) a!13))
                     (not (ite a!17 a!30 a!16))
                     (not (ite a!17 (= a!31 #b0) a!12))))
           (a!46 (ite a!43 (= ((_ extract 2 2) (bvadd #b11111 a!45)) #b0) a!42))
           (a!47 (ite a!43 (= ((_ extract 3 3) (bvadd #b11111 a!45)) #b0) a!41))
           (a!48 (ite a!43 (= ((_ extract 1 1) (bvadd #b11111 a!45)) #b0) a!39))
           (a!51 (ite (or (not (= O1 #b001)) (not a!43)) a!7 (bvadd #xf a!7)))
           (a!55 (ite a!17
                      (bvadd #b11111 (ite a!6 (bvadd #b11111 F1) F1))
                      (ite a!6 (bvadd #b11111 F1) F1)))
           (a!69 (ite a!43 (= ((_ extract 4 4) (bvadd #b11111 a!45)) #b0) a!38))
           (a!71 ((_ extract 4 4)
                   (bvadd #b11111 (ite a!43 (bvadd #b11111 a!45) a!45))))
           (a!72 ((_ extract 1 1)
                   (bvadd #b11111 (ite a!43 (bvadd #b11111 a!45) a!45))))
           (a!73 ((_ extract 2 2)
                   (bvadd #b11111 (ite a!43 (bvadd #b11111 a!45) a!45))))
           (a!74 ((_ extract 3 3)
                   (bvadd #b11111 (ite a!43 (bvadd #b11111 a!45) a!45))))
           (a!78 (not (bvule (ite a!43 (bvadd #xf a!7) a!7) #x9))))
     (let ((a!20 (= (ite a!6
                         (bvadd #xf ((_ extract 3 0) F1))
                         ((_ extract 3 0) F1))
                    a!19))
           (a!34 (not (bvule (ite a!32 (bvadd #xf a!33) a!33) #x9)))
           (a!36 (not (bvule (ite a!35 (bvadd #xf a!33) a!33) #x9)))
           (a!49 (ite (or (not (ite a!43 a!44 a!40))
                          (not a!46)
                          (not a!47)
                          (not a!48))
                      (bvadd #xf (ite a!43 (bvadd #xf a!7) a!7))
                      (ite a!43 (bvadd #xf a!7) a!7)))
           (a!56 (ite a!32
                      (= ((_ extract 3 3) (bvadd #b11111 a!55)) #b0)
                      (ite a!17 (= a!31 #b0) a!12)))
           (a!57 (ite a!32
                      (= ((_ extract 2 2) (bvadd #b11111 a!55)) #b0)
                      (ite a!17 (= a!29 #b0) a!13)))
           (a!58 (not (ite a!32 (ite a!17 a!16 a!30) (ite a!17 a!30 a!16))))
           (a!59 (ite a!32
                      (= ((_ extract 1 1) (bvadd #b11111 a!55)) #b0)
                      (ite a!17 (= a!28 #b0) a!15)))
           (a!61 (or (not a!35) (= ((_ extract 4 4) (bvadd #b11111 a!55)) #b0)))
           (a!62 (ite a!35
                      (= ((_ extract 1 1) (bvadd #b11111 a!55)) #b0)
                      (ite a!17 (= a!28 #b0) a!15)))
           (a!63 (ite a!35
                      (= ((_ extract 3 3) (bvadd #b11111 a!55)) #b0)
                      (ite a!17 (= a!31 #b0) a!12)))
           (a!64 (ite a!35
                      (= ((_ extract 2 2) (bvadd #b11111 a!55)) #b0)
                      (ite a!17 (= a!29 #b0) a!13)))
           (a!67 (ite a!32
                      (= ((_ extract 4 4) (bvadd #b11111 a!55)) #b0)
                      (ite a!17 (= a!27 #b0) a!14)))
           (a!70 (or (not (ite a!43 a!44 a!40))
                     (not a!69)
                     (not a!46)
                     (not a!47)
                     (not a!48)))
           (a!79 (or (= ((_ extract 5 5) G1) #b0)
                     (not a!50)
                     (not (= ((_ extract 3 0) F1) a!7))
                     a!78)))
     (let ((a!60 (ite (or (not a!56) (not a!57) a!58 (not a!59))
                      (bvadd #xf (ite a!32 (bvadd #xf a!33) a!33))
                      (ite a!32 (bvadd #xf a!33) a!33)))
           (a!65 (or (not (ite a!35 (ite a!17 a!16 a!30) (ite a!17 a!30 a!16)))
                     (not a!61)
                     (not a!62)
                     (not a!63)
                     (not a!64)))
           (a!68 (ite (or (not a!56) (not a!57) a!58 (not a!59) (not a!67))
                      (bvadd #xf (ite a!32 (bvadd #xf a!33) a!33))
                      (ite a!32 (bvadd #xf a!33) a!33)))
           (a!75 (or (not (ite a!70 (= a!71 #b0) a!69))
                     (not (ite a!70 (= a!72 #b0) a!48))
                     (not (ite a!70 (ite a!43 a!40 a!44) (ite a!43 a!44 a!40)))
                     (not (ite a!70 (= a!73 #b0) a!46))
                     (not (ite a!70 (= a!74 #b0) a!47))))
           (a!76 (ite a!70
                      (bvadd #xf (ite a!43 (bvadd #xf a!7) a!7))
                      (ite a!43 (bvadd #xf a!7) a!7))))
     (let ((a!66 (ite a!65
                      (bvadd #xf (ite a!35 (bvadd #xf a!33) a!33))
                      (ite a!35 (bvadd #xf a!33) a!33)))
           (a!77 (not (bvule (ite a!75 (bvadd #xf a!76) a!76) #x9))))
     (let ((a!80 (and a!1
                      (not (= I1 #b1))
                      (or ((_ bit2bool 0) J) (not (= K1 #b0)) (= P1 #b0))
                      (or ((_ bit2bool 0) O) (not (= P1 #b1)))
                      (or ((_ bit2bool 0) K1) (not ((_ bit2bool 0) G1)))
                      (or (= D1 #b1) (not (= K #b0)))
                      (or (= O1 #b000) (not (= S1 #b1)))
                      (or (not ((_ bit2bool 0) G1)) (not (= J1 #b1)))
                      (or ((_ bit2bool 0) D1) (not ((_ bit2bool 0) G1)))
                      (or ((_ bit2bool 0) J) (not ((_ bit2bool 1) G1)))
                      (or (not ((_ bit2bool 0) G1)) (not ((_ bit2bool 33) M1)))
                      (or (= L #b0)
                          (not (= S1 #b1))
                          ((_ bit2bool 0) O)
                          ((_ bit2bool 0) D1))
                      (or ((_ bit2bool 2) F1) (not ((_ bit2bool 0) G1)))
                      (or ((_ bit2bool 0) K1) (not ((_ bit2bool 1) G1)))
                      (or (not ((_ bit2bool 1) G1)) (not (= Y #b1)))
                      (or ((_ bit2bool 4) F1) (not ((_ bit2bool 0) G1)))
                      (or (not (= O1 #b001)) (not (= Q1 #b0)))
                      (or (not (= F1 #b00000))
                          (= P1 #b0)
                          (= ((_ extract 2 2) O1) #b1))
                      (or (not (= S1 #b1))
                          (not ((_ bit2bool 0) L))
                          (= D1 #b1)
                          ((_ bit2bool 0) C1))
                      (or (not ((_ bit2bool 0) Z))
                          (= P1 #b0)
                          (= ((_ extract 2 2) O1) #b1))
                      (or (not (= J1 #b1)) (= P1 #b0))
                      a!3
                      (or (not ((_ bit2bool 1) G1)) (not (= J1 #b1)))
                      (or (not (= S1 #b1))
                          (not (= F1 #b00000))
                          (not ((_ bit2bool 0) K1)))
                      (or (not (= Q1 #b1)) (= O1 #b001))
                      (or (not ((_ bit2bool 0) C1)) (not (= S1 #b0)))
                      a!4
                      a!5
                      (or (not ((_ bit2bool 0) I)) (= P1 #b0))
                      (or ((_ bit2bool 0) J)
                          (not (= I #b1))
                          (not ((_ bit2bool 2) G1)))
                      (or (= L #b0) (= D1 #b1) (not (= K1 #b0)))
                      (or ((_ bit2bool 4) F1) (not ((_ bit2bool 1) G1)))
                      (or (not ((_ bit2bool 32) M1)) (not (= J #b0)))
                      (or (= F1 #b00001) (not (= P1 #b1)) (not (= K1 #b0)))
                      (or (not ((_ bit2bool 3) G1)) (not (= J1 #b1)))
                      (or (not ((_ bit2bool 2) G1)) (= J1 #b0))
                      (or (not (= Y #b1)) (not (= P1 #b1)))
                      (or ((_ bit2bool 0) T)
                          ((_ bit2bool 0) W)
                          (not (= Y #b1))
                          (not (= K1 #b1)))
                      (or (not (= X #b1)) (= ((_ extract 0 0) O1) #b1))
                      (or (not ((_ bit2bool 0) Z)) (not ((_ bit2bool 2) G1)))
                      (or (not ((_ bit2bool 3) G1)) (not (= J #b0)))
                      (or (= ((_ extract 2 2) G1) #b0) (not (= K1 #b0)))
                      (or (not (= S1 #b0)) (not (= K1 #b0)) (= P1 #b0))
                      (or (= R1 #b00) (not (= K #b0)))
                      (or (= R1 #b00) (not (= X #b1)))
                      (or (not ((_ bit2bool 1) O1))
                          (not ((_ bit2bool 0) O1))
                          (not (= P #b0)))
                      (or (not ((_ bit2bool 1) O1))
                          (= D1 #b1)
                          ((_ bit2bool 0) O1))
                      (or (not (= S1 #b1))
                          (not ((_ bit2bool 2) G1))
                          ((_ bit2bool 0) C1))
                      (or ((_ bit2bool 0) T) (not (= P1 #b1)))
                      (or (not ((_ bit2bool 34) M1)) (not (= J #b0)))
                      (or (not ((_ bit2bool 2) G1))
                          ((_ bit2bool 2) F1)
                          ((_ bit2bool 4) F1))
                      (or (not ((_ bit2bool 2) G1))
                          ((_ bit2bool 4) F1)
                          (not (bvule a!7 #x9)))
                      a!8
                      (or (not (= Y #b1)) (not (= K1 #b1)) (not (= S1 #b1)))
                      (or (not ((_ bit2bool 4) G1)) (not (= J1 #b1)))
                      (or (not (= O1 #b001)) (not (= D1 #b0)))
                      (or ((_ bit2bool 0) C1)
                          (not (= S1 #b1))
                          (= ((_ extract 3 3) G1) #b0))
                      (or (not ((_ bit2bool 0) Z)) (= ((_ extract 3 3) G1) #b0))
                      (or (not ((_ bit2bool 3) G1)) (not (= K1 #b0)))
                      (or (not ((_ bit2bool 4) G1)) (not (= J #b0)))
                      (or (not ((_ bit2bool 3) G1))
                          ((_ bit2bool 4) F1)
                          (not (bvule a!7 #x9)))
                      a!9
                      (or (not (= O #b0)) (not (= Y #b1)) (not (= K1 #b1)))
                      (or ((_ bit2bool 1) R1) (= R1 #b00))
                      (or (= O1 #b000)
                          (not (= J #b0))
                          (not (= I #b1))
                          (not (= K1 #b1))
                          (not (= J1 #b0))
                          (not (= X1 #b1)))
                      (or (not (= X #b1)) (not (= J1 #b1)))
                      (or ((_ bit2bool 0) K1) (= ((_ extract 4 4) G1) #b0))
                      (or (not ((_ bit2bool 5) G1)) (not (= J1 #b1)))
                      (or (not ((_ bit2bool 0) Z)) (not ((_ bit2bool 5) G1)))
                      (or (not ((_ bit2bool 0) Z)) (not ((_ bit2bool 4) G1)))
                      (or (not (= S1 #b1))
                          (not ((_ bit2bool 4) G1))
                          ((_ bit2bool 0) C1))
                      (or (not (= S1 #b1)) a!10)
                      (or (not ((_ bit2bool 3) G1))
                          ((_ bit2bool 4) F1)
                          (not a!11))
                      (or (not ((_ bit2bool 3) G1))
                          (not a!20)
                          (not (bvule a!19 #x9))
                          (not a!22))
                      (or (not ((_ bit2bool 4) G1))
                          ((_ bit2bool 4) F1)
                          (not (bvule a!23 #x9)))
                      (or ((_ bit2bool 5) M1) (not (= J #b0)) (= R1 #b00))
                      (or ((_ bit2bool 0) C1)
                          (not (= S1 #b1))
                          (= ((_ extract 5 5) G1) #b0))
                      (or (not ((_ bit2bool 5) G1)) (not (= J #b0)))
                      a!24
                      a!25
                      (or (not ((_ bit2bool 5) G1)) (not (= K1 #b0)))
                      (or (not (= J1 #b1)) (not (= K #b0)))
                      a!26
                      (not (= ((_ extract 1 1) M1) #b1))
                      (or (not ((_ bit2bool 6) G1)) (not ((_ bit2bool 5) M1)))
                      (or (not ((_ bit2bool 2) G1)) (not (= a!27 #b0)) a!34)
                      (or (not ((_ bit2bool 2) G1)) a!36 (not (= a!27 #b0)))
                      (or (not ((_ bit2bool 2) G1)) (not a!22) a!36)
                      (or (not ((_ bit2bool 3) G1))
                          ((_ bit2bool 4) F1)
                          (not (bvule a!37 #x9)))
                      (or (not ((_ bit2bool 3) G1))
                          (not (= O1 #b010))
                          ((_ bit2bool 4) F1)
                          (not (bvule a!49 #x9)))
                      (or (= ((_ extract 3 3) G1) #b0)
                          (not (= S1 #b1))
                          (not a!22)
                          (not (bvule a!33 #x9)))
                      (or (not ((_ bit2bool 4) G1))
                          ((_ bit2bool 4) F1)
                          (not a!11))
                      (or (not ((_ bit2bool 5) G1))
                          (not a!50)
                          (not (bvule a!51 #x9)))
                      (or (= ((_ extract 4 4) G1) #b0)
                          (not (= S1 #b1))
                          (not (bvule a!19 #x9))
                          (not a!22))
                      (or (= Z #b1) (not (= K #b0)))
                      (or (not ((_ bit2bool 6) G1)) (not (= J1 #b1)))
                      (or (= U1 #b1)
                          (= R1 #b00)
                          (not (= J1 #b1))
                          (not (= I #b0)))
                      a!52
                      (or ((_ bit2bool 0) K1) (= ((_ extract 6 6) G1) #b0))
                      (or (not ((_ bit2bool 7) G1)) (not (= J1 #b1)))
                      a!53
                      (or (= O1 #b000)
                          (= R1 #b00)
                          (not (= J #b0))
                          (not (= I #b1))
                          (not (= K1 #b1))
                          (not (= J1 #b0)))
                      (or (= ((_ extract 5 5) G1) #b0)
                          (not a!50)
                          (not (bvule a!7 #x9)))
                      a!54
                      (or (= R1 #b10)
                          (not (= S1 #b1))
                          (not (= W #b0))
                          (not (= K1 #b1))
                          ((_ bit2bool 0) C1))
                      (or (not (= S1 #b1))
                          (not ((_ bit2bool 6) G1))
                          ((_ bit2bool 0) C1))
                      (or (not ((_ bit2bool 7) G1)) (not ((_ bit2bool 5) M1)))
                      (or (not ((_ bit2bool 6) G1)) (not ((_ bit2bool 0) Z)))
                      (or (not ((_ bit2bool 2) G1))
                          ((_ bit2bool 4) F1)
                          (not (bvule a!60 #x9)))
                      (or (= ((_ extract 2 2) G1) #b0)
                          (not (= a!27 #b0))
                          (not (bvule a!66 #x9)))
                      (or (not ((_ bit2bool 2) G1))
                          (not a!22)
                          (not (bvule a!68 #x9)))
                      (or (not ((_ bit2bool 3) G1)) ((_ bit2bool 4) F1) a!36)
                      (or (not ((_ bit2bool 1) O1))
                          (not ((_ bit2bool 3) G1))
                          ((_ bit2bool 4) F1)
                          a!34)
                      (or (not ((_ bit2bool 3) G1))
                          (not (= O1 #b010))
                          ((_ bit2bool 4) F1)
                          a!77)
                      (or (not ((_ bit2bool 3) G1))
                          (not (= O1 #b001))
                          a!36
                          (not (= a!27 #b0)))
                      (or (not (= S1 #b1))
                          (not ((_ bit2bool 3) G1))
                          (not (= a!27 #b0))
                          a!34)
                      (or (= ((_ extract 4 4) G1) #b0)
                          ((_ bit2bool 4) F1)
                          (not (bvule a!37 #x9)))
                      (or (not (= S1 #b1))
                          (not ((_ bit2bool 4) G1))
                          (not a!22)
                          (not (bvule a!33 #x9)))
                      (or (= ((_ extract 5 5) G1) #b0)
                          (not (= S1 #b1))
                          (not (bvule a!19 #x9))
                          (not a!22))
                      (or (= O1 #b000)
                          (not (= I #b1))
                          (not (= Y #b1))
                          (not (= K1 #b1)))
                      (or ((_ bit2bool 0) K1)
                          (not (= T #b0))
                          (= ((_ extract 7 7) G1) #b0))
                      (or (not (= S1 #b1))
                          (not ((_ bit2bool 4) F1))
                          (not (= T #b0))
                          ((_ bit2bool 0) C1))
                      (or (not ((_ bit2bool 1) O1)) (not ((_ bit2bool 2) O1)))
                      (or ((_ bit2bool 0) K1)
                          (not (= S1 #b0))
                          (= ((_ extract 7 7) G1) #b0))
                      a!79
                      (or (not ((_ bit2bool 5) G1)) (not a!11) (not a!22)))))
       (= (INV!slice!1 A
                       B
                       C
                       D
                       E
                       F
                       G
                       H
                       I
                       J
                       K
                       L
                       M
                       N
                       O
                       P
                       Q
                       R
                       S
                       T
                       U
                       V
                       W
                       X
                       Y
                       Z
                       A1
                       B1
                       C1
                       D1
                       E1
                       F1
                       G1
                       H1
                       I1
                       J1
                       K1
                       L1
                       M1
                       N1
                       O1
                       P1
                       Q1
                       R1
                       S1
                       T1
                       U1
                       V1
                       W1
                       X1
                       Y1
                       Z1
                       A2
                       B2
                       C2
                       D2)
          a!80)))))))))
     :weight 0))
